Route 1: 0 39 85 84 40 99 74 0
Route 2: 0 7 86 83 30 19 5 1 49 73 98 34 0
Route 3: 0 4 82 55 29 75 24 92 22 0
Route 4: 0 96 89 51 8 9 16 0
Route 5: 0 70 10 56 18 81 59 67 78 88 69 77 79 0
Route 6: 0 54 46 35 14 13 97 62 44 0
Route 7: 0 76 80 71 45 27 65 3 0
Route 8: 0 28 60 52 93 68 31 0
Route 9: 0 94 66 42 12 25 6 20 50 100 95 38 0
Route 10: 0 64 21 63 41 2 48 0
Route 11: 0 47 53 26 33 11 43 15 90 57 91 0
Route 12: 0 23 72 32 17 58 37 61 36 87 0
